NAME: rue_15_6
TYPE: TSP
DIMENSION: 15
EDGE_WEIGHT_TYPE: EUC_2D
NODE_COORD_SECTION
1 21 10
2 5 15
3 37 25
4 7 15
5 14 1
6 22 21
7 8 8
8 25 19
9 25 40
10 1 24
11 14 26
12 30 14
13 7 7
14 32 19
15 2 30

